c cksystemsgroup.github.io/unicorn
c CNF contains a total of 382 clauses.
c CNF contains a total of 191 variables.
c CNF clauses cover 1 bad states.
c Variable name mapping (49 names):
c   1: input[bit=0]
c   2: input[bit=0]
c   8: input[bit=1]
c   9: input[bit=1]
c   16: input[bit=2]
c   17: input[bit=2]
c   24: input[bit=3]
c   25: input[bit=3]
c   32: input[bit=4]
c   33: input[bit=4]
c   40: input[bit=5]
c   41: input[bit=5]
c   48: input[bit=6]
c   49: input[bit=6]
c   56: input[bit=7]
c   57: input[bit=7]
c   64: input[bit=8]
c   65: input[bit=8]
c   72: input[bit=9]
c   73: input[bit=9]
c   80: input[bit=10]
c   81: input[bit=10]
c   88: input[bit=11]
c   89: input[bit=11]
c   96: input[bit=12]
c   97: input[bit=12]
c   104: input[bit=13]
c   105: input[bit=13]
c   112: input[bit=14]
c   113: input[bit=14]
c   120: input[bit=15]
c   121: input[bit=15]
c   128: input[bit=16]
c   129: input[bit=16]
c   136: input[bit=17]
c   137: input[bit=17]
c   144: input[bit=18]
c   145: input[bit=18]
c   152: input[bit=19]
c   153: input[bit=19]
c   160: input[bit=20]
c   161: input[bit=20]
c   168: input[bit=21]
c   169: input[bit=21]
c   176: input[bit=22]
c   177: input[bit=22]
c   184: input[bit=23]
c   185: input[bit=23]
c   191: ?
p cnf 191 382
-1 -2 -3 0
1 3 0
2 3 0
-1 -4 0
1 4 0
-2 -5 0
2 5 0
-4 -5 -6 0
4 6 0
5 6 0
-3 -6 -7 0
3 7 0
6 7 0
-8 -9 -10 0
8 10 0
9 10 0
-8 -11 0
8 11 0
-9 -12 0
9 12 0
-11 -12 -13 0
11 13 0
12 13 0
-10 -13 -14 0
10 14 0
13 14 0
-7 -14 15 0
7 -15 0
14 -15 0
-16 -17 -18 0
16 18 0
17 18 0
-16 -19 0
16 19 0
-17 -20 0
17 20 0
-19 -20 -21 0
19 21 0
20 21 0
-18 -21 -22 0
18 22 0
21 22 0
-15 -22 23 0
15 -23 0
22 -23 0
-24 -25 -26 0
24 26 0
25 26 0
-24 -27 0
24 27 0
-25 -28 0
25 28 0
-27 -28 -29 0
27 29 0
28 29 0
-26 -29 -30 0
26 30 0
29 30 0
-23 -30 31 0
23 -31 0
30 -31 0
-32 -33 -34 0
32 34 0
33 34 0
-32 -35 0
32 35 0
-33 -36 0
33 36 0
-35 -36 -37 0
35 37 0
36 37 0
-34 -37 -38 0
34 38 0
37 38 0
-31 -38 39 0
31 -39 0
38 -39 0
-40 -41 -42 0
40 42 0
41 42 0
-40 -43 0
40 43 0
-41 -44 0
41 44 0
-43 -44 -45 0
43 45 0
44 45 0
-42 -45 -46 0
42 46 0
45 46 0
-39 -46 47 0
39 -47 0
46 -47 0
-48 -49 -50 0
48 50 0
49 50 0
-48 -51 0
48 51 0
-49 -52 0
49 52 0
-51 -52 -53 0
51 53 0
52 53 0
-50 -53 -54 0
50 54 0
53 54 0
-47 -54 55 0
47 -55 0
54 -55 0
-56 -57 -58 0
56 58 0
57 58 0
-56 -59 0
56 59 0
-57 -60 0
57 60 0
-59 -60 -61 0
59 61 0
60 61 0
-58 -61 -62 0
58 62 0
61 62 0
-55 -62 63 0
55 -63 0
62 -63 0
-64 -65 -66 0
64 66 0
65 66 0
-64 -67 0
64 67 0
-65 -68 0
65 68 0
-67 -68 -69 0
67 69 0
68 69 0
-66 -69 -70 0
66 70 0
69 70 0
-63 -70 71 0
63 -71 0
70 -71 0
-72 -73 -74 0
72 74 0
73 74 0
-72 -75 0
72 75 0
-73 -76 0
73 76 0
-75 -76 -77 0
75 77 0
76 77 0
-74 -77 -78 0
74 78 0
77 78 0
-71 -78 79 0
71 -79 0
78 -79 0
-80 -81 -82 0
80 82 0
81 82 0
-80 -83 0
80 83 0
-81 -84 0
81 84 0
-83 -84 -85 0
83 85 0
84 85 0
-82 -85 -86 0
82 86 0
85 86 0
-79 -86 87 0
79 -87 0
86 -87 0
-88 -89 -90 0
88 90 0
89 90 0
-88 -91 0
88 91 0
-89 -92 0
89 92 0
-91 -92 -93 0
91 93 0
92 93 0
-90 -93 -94 0
90 94 0
93 94 0
-87 -94 95 0
87 -95 0
94 -95 0
-96 -97 -98 0
96 98 0
97 98 0
-96 -99 0
96 99 0
-97 -100 0
97 100 0
-99 -100 -101 0
99 101 0
100 101 0
-98 -101 -102 0
98 102 0
101 102 0
-95 -102 103 0
95 -103 0
102 -103 0
-104 -105 -106 0
104 106 0
105 106 0
-104 -107 0
104 107 0
-105 -108 0
105 108 0
-107 -108 -109 0
107 109 0
108 109 0
-106 -109 -110 0
106 110 0
109 110 0
-103 -110 111 0
103 -111 0
110 -111 0
-112 -113 -114 0
112 114 0
113 114 0
-112 -115 0
112 115 0
-113 -116 0
113 116 0
-115 -116 -117 0
115 117 0
116 117 0
-114 -117 -118 0
114 118 0
117 118 0
-111 -118 119 0
111 -119 0
118 -119 0
-120 -121 -122 0
120 122 0
121 122 0
-120 -123 0
120 123 0
-121 -124 0
121 124 0
-123 -124 -125 0
123 125 0
124 125 0
-122 -125 -126 0
122 126 0
125 126 0
-119 -126 127 0
119 -127 0
126 -127 0
-128 -129 -130 0
128 130 0
129 130 0
-128 -131 0
128 131 0
-129 -132 0
129 132 0
-131 -132 -133 0
131 133 0
132 133 0
-130 -133 -134 0
130 134 0
133 134 0
-127 -134 135 0
127 -135 0
134 -135 0
-136 -137 -138 0
136 138 0
137 138 0
-136 -139 0
136 139 0
-137 -140 0
137 140 0
-139 -140 -141 0
139 141 0
140 141 0
-138 -141 -142 0
138 142 0
141 142 0
-135 -142 143 0
135 -143 0
142 -143 0
-144 -145 -146 0
144 146 0
145 146 0
-144 -147 0
144 147 0
-145 -148 0
145 148 0
-147 -148 -149 0
147 149 0
148 149 0
-146 -149 -150 0
146 150 0
149 150 0
-143 -150 151 0
143 -151 0
150 -151 0
-152 -153 -154 0
152 154 0
153 154 0
-152 -155 0
152 155 0
-153 -156 0
153 156 0
-155 -156 -157 0
155 157 0
156 157 0
-154 -157 -158 0
154 158 0
157 158 0
-151 -158 159 0
151 -159 0
158 -159 0
-160 -161 -162 0
160 162 0
161 162 0
-160 -163 0
160 163 0
-161 -164 0
161 164 0
-163 -164 -165 0
163 165 0
164 165 0
-162 -165 -166 0
162 166 0
165 166 0
-159 -166 167 0
159 -167 0
166 -167 0
-168 -169 -170 0
168 170 0
169 170 0
-168 -171 0
168 171 0
-169 -172 0
169 172 0
-171 -172 -173 0
171 173 0
172 173 0
-170 -173 -174 0
170 174 0
173 174 0
-167 -174 175 0
167 -175 0
174 -175 0
-176 -177 -178 0
176 178 0
177 178 0
-176 -179 0
176 179 0
-177 -180 0
177 180 0
-179 -180 -181 0
179 181 0
180 181 0
-178 -181 -182 0
178 182 0
181 182 0
-175 -182 183 0
175 -183 0
182 -183 0
-184 -185 -186 0
184 186 0
185 186 0
-184 -187 0
184 187 0
-185 -188 0
185 188 0
-187 -188 -189 0
187 189 0
188 189 0
-186 -189 -190 0
186 190 0
189 190 0
-183 -190 191 0
183 -191 0
190 -191 0
191 0
